NAME : tsp30_27.168.tour
COMMENT : Length = 168
COMMENT : Found by LKH [Keld Helsgaun]
TYPE : TOUR
DIMENSION : 30
TOUR_SECTION
1
19
20
6
26
12
9
23
4
30
29
21
5
14
24
2
11
22
10
17
13
27
3
18
15
7
28
8
16
25
-1
EOF
